<number of tasks>
58

<cycle time>
58

<task times>
1 10
2 53
3 41
4 36
5 35
6 17
7 34
8 23
9 14
10 52
11 33
12 34
13 12
14 52
15 12
16 33
17 44
18 7
19 15
20 13
21 29
22 37
23 43
24 23
25 24
26 9
27 16
28 12
29 26
30 22
31 51
32 47
33 34
34 23
35 12
36 52
37 12
38 33
39 44
40 7
41 15
42 13
43 29
44 37
45 43
46 23
47 24
48 9
49 16
50 12
51 26
52 12
53 52
54 12
55 33
56 44
57 7
58 15

<precedence relations>
1,9
2,25
3,21
3,22
4,10
5,36
6,23
6,24
7,43
8,44
9,11
11,13
11,14
11,15
12,17
13,17
14,17
15,17
16,18
17,20
18,19
19,23
20,21
20,25
21,26
21,44
22,27
23,31
24,31
25,38
26,29
27,30
28,32
28,33
29,31
30,34
31,36
32,45
33,35
34,36
35,43
36,37
36,38
37,39
37,40
37,41
38,52
39,43
40,43
41,42
42,43
43,45
44,45
45,46
45,48
45,49
46,47
46,50
47,51
48,55
49,58
50,58
51,52
52,53
53,54
54,55
54,56
55,57
56,57
57,58

<setup times forward>
1,2:2
1,4:1
1,5:1
1,6:1
1,8:1
1,9:2
1,16:2
1,19:1
1,22:1
1,23:2
1,27:2
1,28:1
1,32:2
1,35:2
2,1:2
2,3:2
2,4:1
2,5:1
2,6:3
2,7:2
2,8:3
2,10:2
2,11:4
2,12:2
2,13:1
2,15:4
2,16:4
2,18:2
2,19:1
2,22:3
2,24:2
2,25:2
2,26:4
2,27:4
2,28:1
2,29:4
2,30:2
2,33:2
2,34:2
2,35:4
2,36:1
2,37:4
2,39:2
2,40:3
2,41:4
2,42:4
2,43:1
2,44:2
2,45:2
2,46:1
2,47:3
2,48:3
2,49:2
2,51:1
3,2:2
3,4:1
3,5:1
3,6:1
3,8:1
3,9:2
3,11:2
3,13:1
3,14:2
3,15:2
3,16:2
3,17:2
3,19:1
3,20:2
3,21:2
3,22:1
3,23:2
3,28:1
3,32:2
3,35:2
4,1:1
4,2:1
4,3:1
4,6:2
4,7:1
4,8:2
4,9:1
4,10:1
4,11:3
4,12:1
4,14:1
4,15:3
4,16:3
4,17:1
4,18:1
4,20:1
4,21:1
4,22:2
4,23:1
4,24:1
4,25:1
4,26:3
4,27:3
4,29:3
4,30:1
4,31:1
4,32:1
4,33:1
4,34:1
4,35:3
4,37:3
4,38:1
4,39:1
4,40:2
4,41:3
4,42:3
4,44:1
4,45:1
4,47:2
4,48:2
4,49:1
4,50:1
4,52:3
4,54:3
4,56:1
4,57:1
4,58:3
5,1:1
5,2:1
5,3:1
5,6:2
5,7:1
5,8:2
5,9:1
5,10:1
5,11:3
5,12:1
5,14:1
5,15:3
5,16:3
5,17:1
5,18:1
5,20:1
5,21:1
5,22:2
5,23:1
5,24:1
5,25:1
5,26:3
5,27:3
5,29:3
5,30:1
5,31:1
5,32:1
5,33:1
5,34:1
5,35:3
5,44:1
6,1:1
6,2:3
6,3:1
6,4:2
6,5:2
6,7:1
6,9:3
6,10:1
6,11:1
6,12:1
6,13:2
6,14:3
6,15:1
6,16:1
6,17:3
6,18:1
6,19:2
6,20:3
6,21:3
6,23:3
6,24:1
6,25:1
6,26:1
6,27:1
6,28:2
6,29:1
6,30:1
6,32:3
6,33:1
6,34:1
6,35:1
6,44:1
7,2:2
7,4:1
7,5:1
7,6:1
7,8:1
7,9:2
7,11:2
7,13:1
7,14:2
7,15:2
7,16:2
7,17:2
7,19:1
7,20:2
7,21:2
7,22:1
7,23:2
7,26:2
7,27:2
7,28:1
7,29:2
7,31:2
7,32:2
7,35:2
7,36:1
7,37:2
7,38:2
7,40:1
7,41:2
7,42:2
7,43:1
8,1:1
8,2:3
8,3:1
8,4:2
8,5:2
8,7:1
8,9:3
8,10:1
8,11:1
8,12:1
8,13:2
8,14:3
8,15:1
8,16:1
8,17:3
8,18:1
8,19:2
8,20:3
8,21:3
8,23:3
8,24:1
8,25:1
8,26:1
8,27:1
8,28:2
8,29:1
8,30:1
8,31:3
8,32:3
8,33:1
8,34:1
8,35:1
8,36:2
8,37:1
8,38:3
8,39:1
8,41:1
8,42:1
8,43:2
8,44:1
9,3:2
9,4:1
9,5:1
9,6:3
9,7:2
9,8:3
9,10:2
9,11:4
9,12:2
9,16:4
9,18:2
9,19:1
9,22:3
9,24:2
9,27:4
9,28:1
9,30:2
9,33:2
9,34:2
9,35:4
10,2:2
10,5:1
10,6:1
10,8:1
10,9:2
10,11:2
10,13:1
10,14:2
10,15:2
10,16:2
10,17:2
10,19:1
10,20:2
10,21:2
10,22:1
10,23:2
10,26:2
10,27:2
10,28:1
10,29:2
10,31:2
10,32:2
10,35:2
10,36:1
10,37:2
10,38:2
10,40:1
10,41:2
10,42:2
10,43:1
10,46:1
10,47:1
10,48:1
10,50:2
10,51:1
10,52:2
10,53:1
10,54:2
10,55:1
10,56:2
10,58:2
11,2:4
11,3:2
11,4:3
11,5:3
11,6:1
11,7:2
11,8:1
11,10:2
11,12:2
11,13:3
11,14:4
11,18:2
11,19:3
11,22:1
11,23:4
11,24:2
11,28:3
11,30:2
11,32:4
11,33:2
11,34:2
12,2:2
12,4:1
12,5:1
12,6:1
12,8:1
12,9:2
12,11:2
12,13:1
12,14:2
12,15:2
12,16:2
12,17:2
12,19:1
12,22:1
12,23:2
12,27:2
12,28:1
12,32:2
12,35:2
13,2:1
13,3:1
13,6:2
13,7:1
13,8:2
13,10:1
13,12:1
13,14:1
13,15:3
13,16:3
13,17:1
13,18:1
13,22:2
13,23:1
13,24:1
13,27:3
13,30:1
13,32:1
13,33:1
13,34:1
13,35:3
14,3:2
14,4:1
14,5:1
14,6:3
14,7:2
14,8:3
14,10:2
14,12:2
14,13:1
14,15:4
14,16:4
14,18:2
14,19:1
14,22:3
14,24:2
14,27:4
14,28:1
14,30:2
14,33:2
14,34:2
14,35:4
15,2:4
15,3:2
15,4:3
15,5:3
15,6:1
15,7:2
15,8:1
15,10:2
15,12:2
15,13:3
15,14:4
15,17:4
15,18:2
15,19:3
15,22:1
15,23:4
15,24:2
15,28:3
15,30:2
15,32:4
15,33:2
15,34:2
16,1:2
16,2:4
16,3:2
16,4:3
16,5:3
16,6:1
16,7:2
16,8:1
16,9:4
16,10:2
16,12:2
16,13:3
16,14:4
16,17:4
16,18:2
16,20:4
16,21:4
16,22:1
16,24:2
16,25:2
16,28:3
16,30:2
16,32:4
16,33:2
16,34:2
16,44:2
17,3:2
17,4:1
17,5:1
17,6:3
17,7:2
17,8:3
17,10:2
17,16:4
17,18:2
17,19:1
17,22:3
17,24:2
17,27:4
17,28:1
17,30:2
17,33:2
17,34:2
17,35:4
18,2:2
18,4:1
18,5:1
18,6:1
18,8:1
18,9:2
18,11:2
18,13:1
18,14:2
18,15:2
18,17:2
18,19:1
18,20:2
18,21:2
18,22:1
18,26:2
18,27:2
18,28:1
18,29:2
18,32:2
18,35:2
19,1:1
19,2:1
19,3:1
19,6:2
19,7:1
19,8:2
19,9:1
19,10:1
19,11:3
19,12:1
19,14:1
19,15:3
19,17:1
19,20:1
19,21:1
19,22:2
19,23:1
19,24:1
19,25:1
19,26:3
19,27:3
19,29:3
19,30:1
19,32:1
19,33:1
19,34:1
19,35:3
19,44:1
20,3:2
20,4:1
20,5:1
20,6:3
20,7:2
20,8:3
20,10:2
20,16:4
20,18:2
20,19:1
20,22:3
20,24:2
20,25:2
20,27:4
20,28:1
20,30:2
20,33:2
20,34:2
20,35:4
21,4:1
21,5:1
21,6:3
21,7:2
21,8:3
21,10:2
21,16:4
21,18:2
21,19:1
21,22:3
21,24:2
21,25:2
21,26:4
21,27:4
21,28:1
21,30:2
21,33:2
21,34:2
21,35:4
21,44:2
22,1:1
22,2:3
22,4:2
22,5:2
22,7:1
22,9:3
22,10:1
22,11:1
22,12:1
22,13:2
22,14:3
22,15:1
22,16:1
22,17:3
22,18:1
22,19:2
22,20:3
22,21:3
22,23:3
22,24:1
22,25:1
22,26:1
22,27:1
22,28:2
22,29:1
22,31:3
22,32:3
22,33:1
22,35:1
22,44:1
23,1:2
23,3:2
23,4:1
23,5:1
23,7:2
23,8:3
23,10:2
23,11:4
23,12:2
23,13:1
23,15:4
23,22:3
23,24:2
23,25:2
23,26:4
23,27:4
23,28:1
23,29:4
23,30:2
23,33:2
23,34:2
23,35:4
23,44:2
24,2:2
24,4:1
24,5:1
24,8:1
24,9:2
24,11:2
24,13:1
24,14:2
24,15:2
24,16:2
24,17:2
24,19:1
24,20:2
24,21:2
24,22:1
24,23:2
24,26:2
24,27:2
24,28:1
24,29:2
24,31:2
24,32:2
24,35:2
25,4:1
25,5:1
25,6:1
25,8:1
25,16:2
25,19:1
25,21:2
25,22:1
25,23:2
25,26:2
25,27:2
25,28:1
25,29:2
25,31:2
25,32:2
25,35:2
25,36:1
25,37:2
25,38:2
25,40:1
25,41:2
25,42:2
25,43:1
25,46:1
25,47:1
25,48:1
25,50:2
25,51:1
26,2:4
26,4:3
26,5:3
26,6:1
26,7:2
26,8:1
26,10:2
26,18:2
26,19:3
26,22:1
26,23:4
26,24:2
26,25:2
26,28:3
26,30:2
26,32:4
26,33:2
26,34:2
26,44:2
27,1:2
27,2:4
27,4:3
27,5:3
27,6:1
27,7:2
27,8:1
27,9:4
27,10:2
27,12:2
27,13:3
27,14:4
27,17:4
27,18:2
27,19:3
27,20:4
27,21:4
27,23:4
27,24:2
27,25:2
27,28:3
27,30:2
27,31:4
27,32:4
27,33:2
27,44:2
28,1:1
28,2:1
28,3:1
28,6:2
28,7:1
28,8:2
28,9:1
28,10:1
28,11:3
28,12:1
28,14:1
28,15:3
28,16:3
28,17:1
28,18:1
28,20:1
28,21:1
28,22:2
28,23:1
28,24:1
28,25:1
28,26:3
28,27:3
28,29:3
28,30:1
28,31:1
28,32:1
28,33:1
28,34:1
28,37:3
28,38:1
28,39:1
28,40:2
28,41:3
28,42:3
28,44:1
29,2:4
29,4:3
29,5:3
29,6:1
29,7:2
29,8:1
29,10:2
29,18:2
29,19:3
29,22:1
29,23:4
29,24:2
29,25:2
29,28:3
29,30:2
29,31:4
29,32:4
29,33:2
29,34:2
29,44:2
30,2:2
30,4:1
30,5:1
30,6:1
30,8:1
30,9:2
30,11:2
30,13:1
30,14:2
30,15:2
30,16:2
30,17:2
30,19:1
30,20:2
30,21:2
30,23:2
30,26:2
30,28:1
30,29:2
30,31:2
30,32:2
30,35:2
31,4:1
31,5:1
31,7:2
31,8:3
31,10:2
31,22:3
31,25:2
31,27:4
31,28:1
31,30:2
31,33:2
31,34:2
31,35:4
31,36:1
31,44:2
32,1:2
32,3:2
32,4:1
32,5:1
32,6:3
32,7:2
32,8:3
32,10:2
32,11:4
32,12:2
32,13:1
32,15:4
32,16:4
32,18:2
32,19:1
32,22:3
32,24:2
32,25:2
32,26:4
32,27:4
32,29:4
32,30:2
32,33:2
32,34:2
32,35:4
32,36:1
32,37:4
32,39:2
32,40:3
32,41:4
32,42:4
32,43:1
32,44:2
32,45:2
33,2:2
33,4:1
33,5:1
33,6:1
33,8:1
33,9:2
33,11:2
33,13:1
33,14:2
33,15:2
33,16:2
33,17:2
33,19:1
33,20:2
33,21:2
33,22:1
33,23:2
33,26:2
33,27:2
33,29:2
33,31:2
33,32:2
33,35:2
33,36:1
33,37:2
33,38:2
33,40:1
33,41:2
33,42:2
34,2:2
34,4:1
34,5:1
34,6:1
34,8:1
34,9:2
34,11:2
34,13:1
34,14:2
34,15:2
34,16:2
34,17:2
34,19:1
34,20:2
34,21:2
34,23:2
34,26:2
34,28:1
34,29:2
34,31:2
34,32:2
34,35:2
34,36:1
35,1:2
35,2:4
35,3:2
35,4:3
35,5:3
35,6:1
35,7:2
35,8:1
35,9:4
35,10:2
35,12:2
35,13:3
35,14:4
35,17:4
35,18:2
35,19:3
35,20:4
35,21:4
35,22:1
35,23:4
35,24:2
35,25:2
35,30:2
35,31:4
35,32:4
35,34:2
35,36:3
35,38:4
35,39:2
35,40:1
35,43:3
35,44:2
36,2:1
36,7:1
36,8:2
36,10:1
36,25:1
36,32:1
36,33:1
36,35:3
36,37:3
36,38:1
36,44:1
37,2:4
37,4:3
37,7:2
37,8:1
37,10:2
37,25:2
37,28:3
37,32:4
37,33:2
37,38:4
37,39:2
37,40:1
37,44:2
38,4:1
38,7:2
38,8:3
38,10:2
38,28:1
38,33:2
38,35:4
38,37:4
38,39:2
38,40:3
38,41:4
38,42:4
38,43:1
38,44:2
38,45:2
38,46:1
38,47:3
38,48:3
38,49:2
38,51:1
38,52:4
39,2:2
39,4:1
39,8:1
39,28:1
39,32:2
39,35:2
39,38:2
39,40:1
39,41:2
39,42:2
39,43:1
40,2:3
40,4:2
40,7:1
40,10:1
40,25:1
40,28:2
40,32:3
40,33:1
40,35:1
40,38:3
40,39:1
40,41:1
40,42:1
40,43:2
40,44:1
41,2:4
41,4:3
41,7:2
41,8:1
41,10:2
41,25:2
41,28:3
41,32:4
41,33:2
41,38:4
41,39:2
41,40:1
41,44:2
42,2:4
42,4:3
42,7:2
42,8:1
42,10:2
42,25:2
42,28:3
42,32:4
42,33:2
42,38:4
42,39:2
42,40:1
42,43:3
42,44:2
43,2:1
43,8:2
43,10:1
43,25:1
43,32:1
43,38:1
43,44:1
43,45:1
44,2:2
44,4:1
44,5:1
44,6:1
44,16:2
44,19:1
44,22:1
44,23:2
44,26:2
44,27:2
44,28:1
44,29:2
44,31:2
44,32:2
44,35:2
44,36:1
44,37:2
44,38:2
44,40:1
44,41:2
44,42:2
44,43:1
45,2:2
45,4:1
45,38:2
45,46:1
45,48:1
46,2:1
46,10:1
46,25:1
46,38:1
46,47:2
46,48:2
46,49:1
46,50:1
47,2:3
47,4:2
47,10:1
47,25:1
47,38:3
47,49:1
47,50:3
47,51:2
48,2:3
48,4:2
48,10:1
48,25:1
48,38:3
48,46:2
48,49:1
48,50:3
48,51:2
48,52:1
48,53:2
48,54:1
48,55:2
48,56:3
49,2:2
49,4:1
49,38:2
49,46:1
49,47:1
49,48:1
49,50:2
49,51:1
49,52:2
49,53:1
49,54:2
49,55:1
49,56:2
49,58:2
50,4:1
50,10:2
50,25:2
50,47:3
50,48:3
50,49:2
50,51:1
50,52:4
50,53:1
50,54:4
50,55:1
50,57:2
50,58:4
51,2:1
51,10:1
51,25:1
51,38:1
51,48:2
51,49:1
51,50:1
51,52:3
52,4:3
52,10:2
52,48:1
52,49:2
52,50:4
52,53:3
53,10:1
53,48:2
53,49:1
53,50:1
53,54:3
54,4:3
54,10:2
54,48:1
54,49:2
54,50:4
54,55:3
54,56:4
55,10:1
55,49:1
55,50:1
55,56:1
55,57:1
56,4:1
56,10:2
56,48:3
56,49:2
56,55:1
56,57:2
57,4:1
57,50:2
57,58:2
58,4:3
58,10:2

<setup times backward>
1,1:5
1,2:3
1,3:5
1,4:4
1,5:4
1,6:6
1,7:5
1,8:6
1,10:5
1,12:5
1,16:7
1,18:5
1,19:4
1,22:6
1,23:3
1,24:5
1,27:7
1,28:4
1,30:5
1,32:3
1,33:5
1,34:5
1,35:7
2,1:7
2,2:5
2,3:7
2,4:6
2,5:6
2,6:8
2,7:7
2,8:8
2,9:5
2,10:7
2,11:9
2,12:7
2,13:6
2,14:5
2,15:9
2,16:9
2,17:5
2,18:7
2,19:6
2,20:5
2,21:5
2,22:8
2,23:5
2,24:7
2,26:9
2,27:9
2,28:6
2,29:9
2,30:7
2,31:5
2,32:5
2,33:7
2,34:7
2,35:9
2,36:6
2,37:9
2,39:7
2,40:8
2,41:9
2,42:9
2,43:6
2,44:7
2,45:7
2,46:6
2,47:8
2,48:8
2,49:7
2,50:5
2,51:6
3,1:5
3,2:3
3,3:5
3,4:4
3,5:4
3,6:6
3,7:5
3,8:6
3,9:3
3,10:5
3,11:7
3,12:5
3,13:4
3,14:3
3,15:7
3,16:7
3,17:3
3,18:5
3,19:4
3,20:3
3,23:3
3,24:5
3,25:5
3,28:4
3,32:3
3,33:5
3,35:7
4,1:6
4,2:4
4,3:6
4,4:5
4,5:5
4,6:7
4,7:6
4,8:7
4,9:4
4,11:8
4,12:6
4,13:5
4,14:4
4,15:8
4,16:8
4,17:4
4,18:6
4,19:5
4,20:4
4,21:4
4,22:7
4,23:4
4,24:6
4,25:6
4,26:8
4,27:8
4,28:5
4,29:8
4,30:6
4,31:4
4,32:4
4,33:6
4,34:6
4,35:8
4,36:5
4,37:8
4,38:4
4,39:6
4,40:7
4,41:8
4,42:8
4,43:5
4,44:6
4,45:6
4,46:5
4,47:7
4,48:7
4,49:6
4,50:4
4,51:5
4,52:8
4,53:5
4,54:8
4,55:5
4,56:4
4,57:6
4,58:8
5,1:6
5,2:4
5,3:6
5,4:5
5,5:5
5,6:7
5,7:6
5,8:7
5,9:4
5,10:6
5,11:8
5,12:6
5,13:5
5,14:4
5,15:8
5,16:8
5,17:4
5,18:6
5,19:5
5,20:4
5,21:4
5,22:7
5,23:4
5,24:6
5,25:6
5,26:8
5,27:8
5,28:5
5,29:8
5,30:6
5,31:4
5,32:4
5,33:6
5,34:6
5,35:8
5,44:6
6,1:4
6,2:2
6,3:4
6,4:3
6,5:3
6,6:5
6,7:4
6,8:5
6,9:2
6,10:4
6,11:6
6,12:4
6,13:3
6,14:2
6,15:6
6,16:6
6,17:2
6,18:4
6,19:3
6,20:2
6,21:2
6,22:5
6,25:4
6,26:6
6,27:6
6,28:3
6,29:6
6,30:4
6,32:2
6,33:4
6,34:4
6,35:6
6,44:4
7,1:5
7,2:3
7,3:5
7,4:4
7,5:4
7,6:6
7,7:5
7,8:6
7,9:3
7,10:5
7,11:7
7,12:5
7,13:4
7,14:3
7,15:7
7,16:7
7,17:3
7,18:5
7,19:4
7,20:3
7,21:3
7,22:6
7,23:3
7,24:5
7,25:5
7,26:7
7,27:7
7,28:4
7,29:7
7,30:5
7,31:3
7,32:3
7,33:5
7,34:5
7,35:7
7,36:4
7,37:7
7,38:3
7,39:5
7,40:6
7,41:7
7,42:7
7,44:5
8,1:4
8,2:2
8,3:4
8,4:3
8,5:3
8,6:5
8,7:4
8,8:5
8,9:2
8,10:4
8,11:6
8,12:4
8,13:3
8,14:2
8,15:6
8,16:6
8,17:2
8,18:4
8,19:3
8,20:2
8,21:2
8,22:5
8,23:2
8,24:4
8,25:4
8,26:6
8,27:6
8,28:3
8,29:6
8,30:4
8,31:2
8,32:2
8,33:4
8,34:4
8,35:6
8,36:3
8,37:6
8,38:2
8,39:4
8,40:5
8,41:6
8,42:6
8,43:3
9,1:7
9,2:5
9,3:7
9,4:6
9,5:6
9,6:8
9,7:7
9,8:8
9,9:5
9,10:7
9,12:7
9,16:9
9,18:7
9,19:6
9,22:8
9,23:5
9,24:7
9,27:9
9,28:6
9,30:7
9,32:5
9,33:7
9,34:7
9,35:9
10,1:5
10,2:3
10,3:5
10,4:4
10,5:4
10,6:6
10,7:5
10,8:6
10,9:3
10,10:5
10,11:7
10,12:5
10,13:4
10,14:3
10,15:7
10,16:7
10,17:3
10,18:5
10,19:4
10,20:3
10,21:3
10,22:6
10,23:3
10,24:5
10,25:5
10,26:7
10,27:7
10,28:4
10,29:7
10,30:5
10,31:3
10,32:3
10,33:5
10,34:5
10,35:7
10,36:4
10,37:7
10,38:3
10,39:5
10,40:6
10,41:7
10,42:7
10,43:4
10,44:5
10,45:5
10,46:4
10,47:6
10,48:6
10,49:5
10,50:3
10,51:4
10,52:7
10,53:4
10,54:7
10,55:4
10,56:3
10,57:5
10,58:7
11,1:3
11,2:1
11,3:3
11,4:2
11,5:2
11,6:4
11,7:3
11,8:4
11,9:1
11,10:3
11,11:5
11,12:3
11,16:5
11,18:3
11,19:2
11,22:4
11,23:1
11,24:3
11,27:5
11,28:2
11,30:3
11,32:1
11,33:3
11,34:3
11,35:5
12,1:5
12,2:3
12,3:5
12,4:4
12,5:4
12,6:6
12,7:5
12,8:6
12,9:3
12,10:5
12,11:7
12,12:5
12,13:4
12,14:3
12,15:7
12,16:7
12,18:5
12,19:4
12,22:6
12,23:3
12,24:5
12,27:7
12,28:4
12,30:5
12,32:3
12,33:5
12,34:5
12,35:7
13,1:6
13,2:4
13,3:6
13,4:5
13,5:5
13,6:7
13,7:6
13,8:7
13,9:4
13,10:6
13,11:8
13,12:6
13,13:5
13,14:4
13,15:8
13,16:8
13,18:6
13,19:5
13,22:7
13,23:4
13,24:6
13,27:8
13,28:5
13,30:6
13,32:4
13,33:6
13,34:6
13,35:8
14,1:7
14,2:5
14,3:7
14,4:6
14,5:6
14,6:8
14,7:7
14,8:8
14,9:5
14,10:7
14,11:9
14,12:7
14,13:6
14,14:5
14,15:9
14,16:9
14,18:7
14,19:6
14,22:8
14,23:5
14,24:7
14,27:9
14,28:6
14,30:7
14,32:5
14,33:7
14,34:7
14,35:9
15,1:3
15,2:1
15,3:3
15,4:2
15,5:2
15,6:4
15,7:3
15,8:4
15,9:1
15,10:3
15,11:5
15,12:3
15,13:2
15,14:1
15,15:5
15,16:5
15,18:3
15,19:2
15,22:4
15,23:1
15,24:3
15,27:5
15,28:2
15,30:3
15,32:1
15,33:3
15,34:3
15,35:5
16,1:3
16,2:1
16,3:3
16,4:2
16,5:2
16,6:4
16,7:3
16,8:4
16,9:1
16,10:3
16,11:5
16,12:3
16,13:2
16,14:1
16,15:5
16,16:5
16,17:1
16,20:1
16,21:1
16,22:4
16,24:3
16,25:3
16,26:5
16,27:5
16,28:2
16,29:5
16,30:3
16,32:1
16,33:3
16,34:3
16,35:5
16,44:3
17,1:7
17,2:5
17,3:7
17,4:6
17,5:6
17,6:8
17,7:7
17,8:8
17,9:5
17,10:7
17,11:9
17,12:7
17,13:6
17,14:5
17,15:9
17,16:9
17,17:5
17,18:7
17,19:6
17,22:8
17,23:5
17,24:7
17,27:9
17,28:6
17,30:7
17,32:5
17,33:7
17,34:7
17,35:9
18,1:5
18,2:3
18,3:5
18,4:4
18,5:4
18,6:6
18,7:5
18,8:6
18,9:3
18,10:5
18,11:7
18,12:5
18,13:4
18,14:3
18,15:7
18,16:7
18,17:3
18,18:5
18,20:3
18,21:3
18,22:6
18,24:5
18,25:5
18,26:7
18,27:7
18,28:4
18,29:7
18,30:5
18,32:3
18,33:5
18,34:5
18,35:7
18,44:5
19,1:6
19,2:4
19,3:6
19,4:5
19,5:5
19,6:7
19,7:6
19,8:7
19,9:4
19,10:6
19,11:8
19,12:6
19,13:5
19,14:4
19,15:8
19,16:8
19,17:4
19,18:6
19,19:5
19,20:4
19,21:4
19,22:7
19,24:6
19,25:6
19,26:8
19,27:8
19,28:5
19,29:8
19,30:6
19,32:4
19,33:6
19,34:6
19,35:8
19,44:6
20,1:7
20,2:5
20,3:7
20,4:6
20,5:6
20,6:8
20,7:7
20,8:8
20,9:5
20,10:7
20,11:9
20,12:7
20,13:6
20,14:5
20,15:9
20,16:9
20,17:5
20,18:7
20,19:6
20,20:5
20,22:8
20,23:5
20,24:7
20,27:9
20,28:6
20,30:7
20,32:5
20,33:7
20,34:7
20,35:9
21,1:7
21,2:5
21,3:7
21,4:6
21,5:6
21,6:8
21,7:7
21,8:8
21,9:5
21,10:7
21,11:9
21,12:7
21,13:6
21,14:5
21,15:9
21,16:9
21,17:5
21,18:7
21,19:6
21,20:5
21,21:5
21,22:8
21,23:5
21,24:7
21,25:7
21,27:9
21,28:6
21,30:7
21,32:5
21,33:7
21,34:7
21,35:9
22,1:4
22,2:2
22,3:4
22,4:3
22,5:3
22,6:5
22,7:4
22,8:5
22,9:2
22,10:4
22,11:6
22,12:4
22,13:3
22,14:2
22,15:6
22,16:6
22,17:2
22,18:4
22,19:3
22,20:2
22,21:2
22,22:5
22,23:2
22,24:4
22,25:4
22,26:6
22,28:3
22,29:6
22,31:2
22,32:2
22,33:4
22,35:6
22,44:4
23,1:7
23,2:5
23,3:7
23,4:6
23,5:6
23,6:8
23,7:7
23,8:8
23,9:5
23,10:7
23,11:9
23,12:7
23,13:6
23,14:5
23,15:9
23,16:9
23,17:5
23,18:7
23,19:6
23,20:5
23,21:5
23,22:8
23,23:5
23,24:7
23,25:7
23,26:9
23,27:9
23,28:6
23,29:9
23,30:7
23,32:5
23,33:7
23,34:7
23,35:9
23,44:7
24,1:5
24,2:3
24,3:5
24,4:4
24,5:4
24,6:6
24,7:5
24,8:6
24,9:3
24,10:5
24,11:7
24,12:5
24,13:4
24,14:3
24,15:7
24,16:7
24,17:3
24,18:5
24,19:4
24,20:3
24,21:3
24,22:6
24,23:3
24,24:5
24,25:5
24,26:7
24,27:7
24,28:4
24,29:7
24,30:5
24,32:3
24,33:5
24,34:5
24,35:7
24,44:5
25,1:5
25,2:3
25,3:5
25,4:4
25,5:4
25,6:6
25,7:5
25,8:6
25,9:3
25,10:5
25,11:7
25,12:5
25,13:4
25,14:3
25,15:7
25,16:7
25,17:3
25,18:5
25,19:4
25,20:3
25,21:3
25,22:6
25,23:3
25,24:5
25,25:5
25,26:7
25,27:7
25,28:4
25,29:7
25,30:5
25,31:3
25,32:3
25,33:5
25,34:5
25,35:7
25,36:4
25,37:7
25,39:5
25,40:6
25,41:7
25,42:7
25,43:4
25,44:5
25,45:5
25,46:4
25,47:6
25,48:6
25,49:5
25,50:3
25,51:4
26,1:3
26,2:1
26,3:3
26,4:2
26,5:2
26,6:4
26,7:3
26,8:4
26,9:1
26,10:3
26,11:5
26,12:3
26,13:2
26,14:1
26,15:5
26,16:5
26,17:1
26,18:3
26,19:2
26,20:1
26,21:1
26,22:4
26,23:1
26,24:3
26,25:3
26,26:5
26,27:5
26,28:2
26,30:3
26,32:1
26,33:3
26,34:3
26,35:5
26,44:3
27,1:3
27,2:1
27,3:3
27,4:2
27,5:2
27,6:4
27,7:3
27,8:4
27,9:1
27,10:3
27,11:5
27,12:3
27,13:2
27,14:1
27,15:5
27,16:5
27,17:1
27,18:3
27,19:2
27,20:1
27,21:1
27,22:4
27,23:1
27,24:3
27,25:3
27,26:5
27,27:5
27,28:2
27,29:5
27,31:1
27,32:1
27,33:3
27,35:5
27,44:3
28,1:6
28,2:4
28,3:6
28,4:5
28,5:5
28,6:7
28,7:6
28,8:7
28,9:4
28,10:6
28,11:8
28,12:6
28,13:5
28,14:4
28,15:8
28,16:8
28,17:4
28,18:6
28,19:5
28,20:4
28,21:4
28,22:7
28,23:4
28,24:6
28,25:6
28,26:8
28,27:8
28,28:5
28,29:8
28,30:6
28,31:4
28,34:6
28,36:5
28,37:8
28,38:4
28,39:6
28,40:7
28,41:8
28,42:8
28,44:6
29,1:3
29,2:1
29,3:3
29,4:2
29,5:2
29,6:4
29,7:3
29,8:4
29,9:1
29,10:3
29,11:5
29,12:3
29,13:2
29,14:1
29,15:5
29,16:5
29,17:1
29,18:3
29,19:2
29,20:1
29,21:1
29,22:4
29,23:1
29,24:3
29,25:3
29,26:5
29,27:5
29,28:2
29,29:5
29,30:3
29,32:1
29,33:3
29,34:3
29,35:5
29,44:3
30,1:5
30,2:3
30,3:5
30,4:4
30,5:4
30,6:6
30,7:5
30,8:6
30,9:3
30,10:5
30,11:7
30,12:5
30,13:4
30,14:3
30,15:7
30,16:7
30,17:3
30,18:5
30,19:4
30,20:3
30,21:3
30,22:6
30,23:3
30,24:5
30,25:5
30,26:7
30,27:7
30,28:4
30,29:7
30,30:5
30,31:3
30,32:3
30,33:5
30,35:7
30,44:5
31,1:7
31,2:5
31,3:7
31,4:6
31,5:6
31,6:8
31,7:7
31,8:8
31,9:5
31,10:7
31,11:9
31,12:7
31,13:6
31,14:5
31,15:9
31,16:9
31,17:5
31,18:7
31,19:6
31,20:5
31,21:5
31,22:8
31,23:5
31,24:7
31,25:7
31,26:9
31,27:9
31,28:6
31,29:9
31,30:7
31,31:5
31,32:5
31,33:7
31,34:7
31,35:9
31,44:7
32,1:7
32,2:5
32,3:7
32,4:6
32,5:6
32,6:8
32,7:7
32,8:8
32,9:5
32,10:7
32,11:9
32,12:7
32,13:6
32,14:5
32,15:9
32,16:9
32,17:5
32,18:7
32,19:6
32,20:5
32,21:5
32,22:8
32,23:5
32,24:7
32,25:7
32,26:9
32,27:9
32,28:6
32,29:9
32,30:7
32,31:5
32,32:5
32,33:7
32,34:7
32,35:9
32,36:6
32,37:9
32,38:5
32,39:7
32,40:8
32,41:9
32,42:9
32,43:6
32,44:7
33,1:5
33,2:3
33,3:5
33,4:4
33,5:4
33,6:6
33,7:5
33,8:6
33,9:3
33,10:5
33,11:7
33,12:5
33,13:4
33,14:3
33,15:7
33,16:7
33,17:3
33,18:5
33,19:4
33,20:3
33,21:3
33,22:6
33,23:3
33,24:5
33,25:5
33,26:7
33,27:7
33,28:4
33,29:7
33,30:5
33,31:3
33,32:3
33,33:5
33,34:5
33,36:4
33,37:7
33,38:3
33,39:5
33,40:6
33,41:7
33,42:7
33,44:5
34,1:5
34,2:3
34,3:5
34,4:4
34,5:4
34,6:6
34,7:5
34,8:6
34,9:3
34,10:5
34,11:7
34,12:5
34,13:4
34,14:3
34,15:7
34,16:7
34,17:3
34,18:5
34,19:4
34,20:3
34,21:3
34,22:6
34,23:3
34,24:5
34,25:5
34,26:7
34,27:7
34,28:4
34,29:7
34,30:5
34,31:3
34,32:3
34,33:5
34,34:5
34,35:7
34,44:5
35,1:3
35,2:1
35,3:3
35,4:2
35,5:2
35,6:4
35,7:3
35,8:4
35,9:1
35,10:3
35,11:5
35,12:3
35,13:2
35,14:1
35,15:5
35,16:5
35,17:1
35,18:3
35,19:2
35,20:1
35,21:1
35,22:4
35,23:1
35,24:3
35,25:3
35,26:5
35,27:5
35,28:2
35,29:5
35,30:3
35,31:1
35,32:1
35,33:3
35,34:3
35,35:5
35,36:2
35,37:5
35,38:1
35,39:3
35,40:4
35,41:5
35,42:5
35,44:3
36,1:6
36,2:4
36,3:6
36,4:5
36,5:5
36,6:7
36,7:6
36,8:7
36,9:4
36,10:6
36,11:8
36,12:6
36,13:5
36,14:4
36,15:8
36,16:8
36,17:4
36,18:6
36,19:5
36,20:4
36,21:4
36,22:7
36,23:4
36,24:6
36,25:6
36,26:8
36,27:8
36,28:5
36,29:8
36,30:6
36,31:4
36,32:4
36,33:6
36,34:6
36,35:8
36,36:5
36,44:6
37,1:3
37,2:1
37,3:3
37,4:2
37,5:2
37,6:4
37,7:3
37,8:4
37,9:1
37,10:3
37,11:5
37,12:3
37,13:2
37,14:1
37,15:5
37,16:5
37,17:1
37,18:3
37,19:2
37,20:1
37,21:1
37,22:4
37,23:1
37,24:3
37,25:3
37,26:5
37,27:5
37,28:2
37,29:5
37,30:3
37,31:1
37,32:1
37,33:3
37,34:3
37,35:5
37,36:2
37,37:5
37,38:1
37,44:3
38,1:7
38,2:5
38,3:7
38,4:6
38,5:6
38,6:8
38,7:7
38,8:8
38,9:5
38,10:7
38,11:9
38,12:7
38,13:6
38,14:5
38,15:9
38,16:9
38,17:5
38,18:7
38,19:6
38,20:5
38,21:5
38,22:8
38,23:5
38,24:7
38,25:7
38,26:9
38,27:9
38,28:6
38,29:9
38,30:7
38,31:5
38,32:5
38,33:7
38,34:7
38,35:9
38,36:6
38,37:9
38,38:5
38,39:7
38,40:8
38,41:9
38,42:9
38,43:6
38,44:7
38,45:7
38,46:6
38,47:8
38,48:8
38,49:7
38,50:5
38,51:6
39,1:5
39,2:3
39,3:5
39,4:4
39,5:4
39,6:6
39,7:5
39,8:6
39,9:3
39,10:5
39,11:7
39,12:5
39,13:4
39,14:3
39,15:7
39,16:7
39,17:3
39,18:5
39,19:4
39,20:3
39,21:3
39,22:6
39,23:3
39,24:5
39,25:5
39,26:7
39,27:7
39,28:4
39,29:7
39,30:5
39,31:3
39,32:3
39,33:5
39,34:5
39,35:7
39,36:4
39,37:7
39,38:3
39,39:5
39,40:6
39,41:7
39,42:7
39,44:5
40,1:4
40,2:2
40,3:4
40,4:3
40,5:3
40,6:5
40,7:4
40,8:5
40,9:2
40,10:4
40,11:6
40,12:4
40,13:3
40,14:2
40,15:6
40,16:6
40,17:2
40,18:4
40,19:3
40,20:2
40,21:2
40,22:5
40,23:2
40,24:4
40,25:4
40,26:6
40,27:6
40,28:3
40,29:6
40,30:4
40,31:2
40,32:2
40,33:4
40,34:4
40,35:6
40,36:3
40,37:6
40,38:2
40,39:4
40,40:5
40,41:6
40,42:6
40,44:4
41,1:3
41,2:1
41,3:3
41,4:2
41,5:2
41,6:4
41,7:3
41,8:4
41,9:1
41,10:3
41,11:5
41,12:3
41,13:2
41,14:1
41,15:5
41,16:5
41,17:1
41,18:3
41,19:2
41,20:1
41,21:1
41,22:4
41,23:1
41,24:3
41,25:3
41,26:5
41,27:5
41,28:2
41,29:5
41,30:3
41,31:1
41,32:1
41,33:3
41,34:3
41,35:5
41,36:2
41,37:5
41,38:1
41,39:3
41,40:4
41,41:5
41,44:3
42,1:3
42,2:1
42,3:3
42,4:2
42,5:2
42,6:4
42,7:3
42,8:4
42,9:1
42,10:3
42,11:5
42,12:3
42,13:2
42,14:1
42,15:5
42,16:5
42,17:1
42,18:3
42,19:2
42,20:1
42,21:1
42,22:4
42,23:1
42,24:3
42,25:3
42,26:5
42,27:5
42,28:2
42,29:5
42,30:3
42,31:1
42,32:1
42,33:3
42,34:3
42,35:5
42,36:2
42,37:5
42,38:1
42,39:3
42,40:4
42,41:5
42,42:5
42,44:3
43,1:6
43,2:4
43,3:6
43,4:5
43,5:5
43,6:7
43,7:6
43,8:7
43,9:4
43,10:6
43,11:8
43,12:6
43,13:5
43,14:4
43,15:8
43,16:8
43,17:4
43,18:6
43,19:5
43,20:4
43,21:4
43,22:7
43,23:4
43,24:6
43,25:6
43,26:8
43,27:8
43,28:5
43,29:8
43,30:6
43,31:4
43,32:4
43,33:6
43,34:6
43,35:8
43,36:5
43,37:8
43,38:4
43,39:6
43,40:7
43,41:8
43,42:8
43,43:5
43,44:6
44,1:5
44,2:3
44,3:5
44,4:4
44,5:4
44,6:6
44,7:5
44,8:6
44,9:3
44,10:5
44,11:7
44,12:5
44,13:4
44,14:3
44,15:7
44,16:7
44,17:3
44,18:5
44,19:4
44,20:3
44,21:3
44,22:6
44,23:3
44,24:5
44,25:5
44,26:7
44,27:7
44,28:4
44,29:7
44,30:5
44,31:3
44,32:3
44,33:5
44,34:5
44,35:7
44,36:4
44,37:7
44,38:3
44,39:5
44,40:6
44,41:7
44,42:7
44,43:4
44,44:5
45,1:5
45,2:3
45,3:5
45,4:4
45,5:4
45,6:6
45,7:5
45,8:6
45,9:3
45,10:5
45,11:7
45,12:5
45,13:4
45,14:3
45,15:7
45,16:7
45,17:3
45,18:5
45,19:4
45,20:3
45,21:3
45,22:6
45,23:3
45,24:5
45,25:5
45,26:7
45,27:7
45,28:4
45,29:7
45,30:5
45,31:3
45,32:3
45,33:5
45,34:5
45,35:7
45,36:4
45,37:7
45,38:3
45,39:5
45,40:6
45,41:7
45,42:7
45,43:4
45,44:5
45,45:5
46,1:6
46,2:4
46,3:6
46,4:5
46,5:5
46,6:7
46,7:6
46,8:7
46,9:4
46,10:6
46,11:8
46,12:6
46,13:5
46,14:4
46,15:8
46,16:8
46,17:4
46,18:6
46,19:5
46,20:4
46,21:4
46,22:7
46,23:4
46,24:6
46,25:6
46,26:8
46,27:8
46,28:5
46,29:8
46,30:6
46,31:4
46,32:4
46,33:6
46,34:6
46,35:8
46,36:5
46,37:8
46,38:4
46,39:6
46,40:7
46,41:8
46,42:8
46,43:5
46,44:6
46,45:6
46,46:5
46,48:7
46,49:6
47,1:4
47,2:2
47,3:4
47,4:3
47,5:3
47,6:5
47,7:4
47,8:5
47,9:2
47,10:4
47,11:6
47,12:4
47,13:3
47,14:2
47,15:6
47,16:6
47,17:2
47,18:4
47,19:3
47,20:2
47,21:2
47,22:5
47,23:2
47,24:4
47,25:4
47,26:6
47,27:6
47,28:3
47,29:6
47,30:4
47,31:2
47,32:2
47,33:4
47,34:4
47,35:6
47,36:3
47,37:6
47,38:2
47,39:4
47,40:5
47,41:6
47,42:6
47,43:3
47,44:4
47,45:4
47,46:3
47,47:5
47,48:5
47,49:4
47,50:2
48,1:4
48,2:2
48,3:4
48,4:3
48,5:3
48,6:5
48,7:4
48,8:5
48,9:2
48,10:4
48,11:6
48,12:4
48,13:3
48,14:2
48,15:6
48,16:6
48,17:2
48,18:4
48,19:3
48,20:2
48,21:2
48,22:5
48,23:2
48,24:4
48,25:4
48,26:6
48,27:6
48,28:3
48,29:6
48,30:4
48,31:2
48,32:2
48,33:4
48,34:4
48,35:6
48,36:3
48,37:6
48,38:2
48,39:4
48,40:5
48,41:6
48,42:6
48,43:3
48,44:4
48,45:4
48,46:3
48,47:5
48,48:5
48,49:4
48,50:2
48,51:3
48,52:6
48,53:3
48,54:6
48,56:2
49,1:5
49,2:3
49,3:5
49,4:4
49,5:4
49,6:6
49,7:5
49,8:6
49,9:3
49,10:5
49,11:7
49,12:5
49,13:4
49,14:3
49,15:7
49,16:7
49,17:3
49,18:5
49,19:4
49,20:3
49,21:3
49,22:6
49,23:3
49,24:5
49,25:5
49,26:7
49,27:7
49,28:4
49,29:7
49,30:5
49,31:3
49,32:3
49,33:5
49,34:5
49,35:7
49,36:4
49,37:7
49,38:3
49,39:5
49,40:6
49,41:7
49,42:7
49,43:4
49,44:5
49,45:5
49,46:4
49,47:6
49,48:6
49,49:5
49,50:3
49,51:4
49,52:7
49,53:4
49,54:7
49,55:4
49,56:3
49,57:5
50,1:7
50,2:5
50,3:7
50,4:6
50,5:6
50,6:8
50,7:7
50,8:8
50,9:5
50,10:7
50,11:9
50,12:7
50,13:6
50,14:5
50,15:9
50,16:9
50,17:5
50,18:7
50,19:6
50,20:5
50,21:5
50,22:8
50,23:5
50,24:7
50,25:7
50,26:9
50,27:9
50,28:6
50,29:9
50,30:7
50,31:5
50,32:5
50,33:7
50,34:7
50,35:9
50,36:6
50,37:9
50,38:5
50,39:7
50,40:8
50,41:9
50,42:9
50,43:6
50,44:7
50,45:7
50,46:6
50,47:8
50,48:8
50,49:7
50,50:5
50,51:6
50,52:9
50,53:6
50,54:9
50,55:6
50,56:5
50,57:7
51,1:6
51,2:4
51,3:6
51,4:5
51,5:5
51,6:7
51,7:6
51,8:7
51,9:4
51,10:6
51,11:8
51,12:6
51,13:5
51,14:4
51,15:8
51,16:8
51,17:4
51,18:6
51,19:5
51,20:4
51,21:4
51,22:7
51,23:4
51,24:6
51,25:6
51,26:8
51,27:8
51,28:5
51,29:8
51,30:6
51,31:4
51,32:4
51,33:6
51,34:6
51,35:8
51,36:5
51,37:8
51,38:4
51,39:6
51,40:7
51,41:8
51,42:8
51,43:5
51,44:6
51,45:6
51,46:5
51,47:7
51,48:7
51,49:6
51,50:4
51,51:5
52,1:3
52,2:1
52,3:3
52,4:2
52,5:2
52,6:4
52,7:3
52,8:4
52,9:1
52,10:3
52,11:5
52,12:3
52,13:2
52,14:1
52,15:5
52,16:5
52,17:1
52,18:3
52,19:2
52,20:1
52,21:1
52,22:4
52,23:1
52,24:3
52,25:3
52,26:5
52,27:5
52,28:2
52,29:5
52,30:3
52,31:1
52,32:1
52,33:3
52,34:3
52,35:5
52,36:2
52,37:5
52,38:1
52,39:3
52,40:4
52,41:5
52,42:5
52,43:2
52,44:3
52,45:3
52,46:2
52,47:4
52,48:4
52,49:3
52,50:1
52,51:2
52,52:5
53,1:6
53,2:4
53,3:6
53,4:5
53,5:5
53,6:7
53,7:6
53,8:7
53,9:4
53,10:6
53,11:8
53,12:6
53,13:5
53,14:4
53,15:8
53,16:8
53,17:4
53,18:6
53,19:5
53,20:4
53,21:4
53,22:7
53,23:4
53,24:6
53,25:6
53,26:8
53,27:8
53,28:5
53,29:8
53,30:6
53,31:4
53,32:4
53,33:6
53,34:6
53,35:8
53,36:5
53,37:8
53,38:4
53,39:6
53,40:7
53,41:8
53,42:8
53,43:5
53,44:6
53,45:6
53,46:5
53,47:7
53,48:7
53,49:6
53,50:4
53,51:5
53,52:8
53,53:5
54,1:3
54,2:1
54,3:3
54,4:2
54,5:2
54,6:4
54,7:3
54,8:4
54,9:1
54,10:3
54,11:5
54,12:3
54,13:2
54,14:1
54,15:5
54,16:5
54,17:1
54,18:3
54,19:2
54,20:1
54,21:1
54,22:4
54,23:1
54,24:3
54,25:3
54,26:5
54,27:5
54,28:2
54,29:5
54,30:3
54,31:1
54,32:1
54,33:3
54,34:3
54,35:5
54,36:2
54,37:5
54,38:1
54,39:3
54,40:4
54,41:5
54,42:5
54,43:2
54,44:3
54,45:3
54,46:2
54,47:4
54,48:4
54,49:3
54,50:1
54,51:2
54,52:5
54,53:2
54,54:5
55,1:6
55,2:4
55,3:6
55,4:5
55,5:5
55,6:7
55,7:6
55,8:7
55,9:4
55,10:6
55,11:8
55,12:6
55,13:5
55,14:4
55,15:8
55,16:8
55,17:4
55,18:6
55,19:5
55,20:4
55,21:4
55,22:7
55,23:4
55,24:6
55,25:6
55,26:8
55,27:8
55,28:5
55,29:8
55,30:6
55,31:4
55,32:4
55,33:6
55,34:6
55,35:8
55,36:5
55,37:8
55,38:4
55,39:6
55,40:7
55,41:8
55,42:8
55,43:5
55,44:6
55,45:6
55,46:5
55,47:7
55,48:7
55,49:6
55,50:4
55,51:5
55,52:8
55,53:5
55,54:8
55,55:5
55,56:4
56,1:7
56,2:5
56,3:7
56,4:6
56,5:6
56,6:8
56,7:7
56,8:8
56,9:5
56,10:7
56,11:9
56,12:7
56,13:6
56,14:5
56,15:9
56,16:9
56,17:5
56,18:7
56,19:6
56,20:5
56,21:5
56,22:8
56,23:5
56,24:7
56,25:7
56,26:9
56,27:9
56,28:6
56,29:9
56,30:7
56,31:5
56,32:5
56,33:7
56,34:7
56,35:9
56,36:6
56,37:9
56,38:5
56,39:7
56,40:8
56,41:9
56,42:9
56,43:6
56,44:7
56,45:7
56,46:6
56,47:8
56,48:8
56,49:7
56,50:5
56,51:6
56,52:9
56,53:6
56,54:9
56,55:6
56,56:5
57,1:5
57,2:3
57,3:5
57,4:4
57,5:4
57,6:6
57,7:5
57,8:6
57,9:3
57,10:5
57,11:7
57,12:5
57,13:4
57,14:3
57,15:7
57,16:7
57,17:3
57,18:5
57,19:4
57,20:3
57,21:3
57,22:6
57,23:3
57,24:5
57,25:5
57,26:7
57,27:7
57,28:4
57,29:7
57,30:5
57,31:3
57,32:3
57,33:5
57,34:5
57,35:7
57,36:4
57,37:7
57,38:3
57,39:5
57,40:6
57,41:7
57,42:7
57,43:4
57,44:5
57,45:5
57,46:4
57,47:6
57,48:6
57,49:5
57,50:3
57,51:4
57,52:7
57,53:4
57,54:7
57,55:4
57,56:3
57,57:5
58,1:3
58,2:1
58,3:3
58,4:2
58,5:2
58,6:4
58,7:3
58,8:4
58,9:1
58,10:3
58,11:5
58,12:3
58,13:2
58,14:1
58,15:5
58,16:5
58,17:1
58,18:3
58,19:2
58,20:1
58,21:1
58,22:4
58,23:1
58,24:3
58,25:3
58,26:5
58,27:5
58,28:2
58,29:5
58,30:3
58,31:1
58,32:1
58,33:3
58,34:3
58,35:5
58,36:2
58,37:5
58,38:1
58,39:3
58,40:4
58,41:5
58,42:5
58,43:2
58,44:3
58,45:3
58,46:2
58,47:4
58,48:4
58,49:3
58,50:1
58,51:2
58,52:5
58,53:2
58,54:5
58,55:2
58,56:1
58,57:3
58,58:5

<end>

<optimal SALBP-1 value>
29


<rand seed>
467321153

